(set-logic BV) (define-fun origCir ((n122 Bool) (n325 Bool) (n254 Bool) (n207 Bool) (i39 Bool)) Bool (xor (and (xor n325 (not (and n254 n207))) n122) i39)) (synth-fun skel ((n122 Bool) (n325 Bool) (n254 Bool) (n207 Bool) (i39 Bool)) Bool) (declare-var n122 Bool) (declare-var n325 Bool) (declare-var n254 Bool) (declare-var n207 Bool) (declare-var i39 Bool) (constraint (= (origCir n122 n325 n254 n207 i39) (skel n122 n325 n254 n207 i39))) (check-synth)
